NAME : pairopt.-197879.tour
COMMENT : Length = -197879
COMMENT : Found by LKH-3 [Keld Helsgaun] Sun Jan 14 20:52:21 2024
TYPE : TOUR
DIMENSION : 16
TOUR_SECTION
1
3
14
10
8
6
5
4
16
2
15
11
9
7
12
13
-1
EOF
